p edge 355 354
e 1 283
e 1 307
e 2 267
e 2 195
e 2 200
e 3 328
e 4 78
e 4 113
e 4 37
e 5 58
e 6 254
e 6 349
e 7 13
e 8 277
e 8 48
e 9 141
e 10 251
e 10 58
e 11 313
e 11 302
e 12 126
e 13 115
e 14 61
e 14 288
e 15 72
e 16 43
e 16 48
e 17 40
e 17 189
e 17 320
e 17 170
e 18 53
e 19 347
e 20 280
e 21 305
e 21 318
e 22 45
e 23 115
e 23 236
e 24 148
e 24 339
e 25 47
e 25 57
e 26 51
e 26 352
e 26 300
e 27 303
e 28 240
e 28 345
e 29 167
e 29 118
e 30 287
e 30 112
e 30 351
e 30 81
e 30 261
e 31 317
e 31 206
e 31 85
e 32 338
e 32 278
e 32 161
e 33 242
e 33 116
e 33 174
e 34 138
e 34 109
e 35 118
e 35 354
e 35 346
e 36 146
e 36 291
e 36 96
e 36 305
e 37 173
e 37 170
e 37 264
e 38 217
e 39 128
e 39 227
e 41 131
e 41 149
e 41 289
e 41 44
e 42 261
e 42 318
e 42 215
e 44 249
e 45 112
e 46 120
e 47 235
e 48 53
e 48 122
e 49 330
e 49 50
e 50 104
e 50 338
e 51 331
e 51 282
e 52 120
e 52 195
e 53 100
e 54 259
e 55 270
e 55 321
e 56 174
e 56 128
e 57 79
e 58 175
e 58 186
e 59 255
e 59 350
e 60 309
e 62 232
e 62 207
e 62 292
e 63 102
e 64 130
e 64 194
e 65 273
e 65 66
e 66 338
e 67 333
e 68 326
e 68 203
e 68 355
e 69 280
e 70 215
e 71 231
e 71 261
e 72 213
e 72 230
e 72 217
e 73 113
e 74 212
e 74 136
e 75 230
e 76 302
e 77 143
e 79 102
e 79 192
e 80 93
e 80 250
e 80 98
e 81 223
e 81 272
e 82 87
e 82 238
e 82 349
e 83 280
e 83 277
e 84 163
e 84 126
e 84 237
e 85 298
e 85 195
e 86 122
e 86 209
e 88 178
e 88 274
e 89 217
e 90 175
e 91 143
e 92 257
e 92 260
e 94 345
e 94 143
e 95 111
e 96 353
e 97 173
e 98 329
e 98 99
e 98 152
e 99 145
e 99 342
e 101 195
e 102 279
e 103 308
e 103 160
e 105 134
e 105 343
e 106 184
e 107 177
e 108 168
e 108 344
e 109 199
e 109 306
e 109 277
e 110 324
e 110 247
e 110 206
e 111 310
e 112 152
e 113 185
e 113 229
e 113 302
e 114 136
e 116 312
e 117 150
e 117 149
e 118 284
e 118 319
e 119 275
e 120 154
e 121 346
e 121 207
e 122 264
e 123 158
e 123 161
e 123 136
e 124 288
e 124 291
e 125 328
e 125 243
e 126 179
e 127 214
e 127 311
e 127 292
e 127 297
e 128 237
e 129 253
e 129 284
e 132 283
e 133 151
e 134 162
e 135 219
e 135 269
e 135 257
e 136 301
e 136 200
e 136 203
e 137 169
e 137 259
e 137 329
e 138 193
e 139 181
e 139 328
e 140 322
e 141 317
e 142 186
e 143 155
e 143 321
e 143 237
e 144 296
e 147 233
e 147 217
e 151 263
e 151 223
e 153 274
e 153 328
e 156 233
e 157 326
e 158 186
e 159 187
e 160 205
e 161 343
e 162 190
e 162 197
e 162 268
e 164 190
e 165 182
e 166 286
e 166 251
e 167 188
e 171 350
e 172 332
e 174 341
e 175 262
e 176 312
e 177 326
e 180 195
e 182 221
e 182 217
e 183 353
e 184 286
e 186 228
e 187 351
e 191 206
e 192 310
e 192 225
e 194 291
e 196 198
e 196 306
e 198 246
e 201 336
e 202 256
e 203 204
e 205 226
e 205 344
e 207 340
e 208 330
e 209 243
e 209 249
e 210 235
e 211 333
e 211 240
e 215 337
e 216 288
e 217 239
e 217 304
e 217 285
e 218 276
e 220 224
e 220 299
e 221 332
e 222 300
e 225 265
e 227 282
e 230 275
e 232 265
e 233 266
e 233 348
e 234 253
e 236 322
e 240 248
e 241 306
e 243 296
e 244 295
e 244 282
e 245 300
e 245 258
e 247 249
e 249 323
e 250 339
e 252 271
e 256 275
e 258 272
e 260 276
e 260 312
e 268 290
e 271 303
e 271 311
e 272 281
e 273 294
e 275 344
e 277 325
e 277 334
e 278 350
e 284 314
e 285 339
e 290 299
e 293 327
e 293 296
e 297 349
e 297 305
e 299 337
e 302 315
e 307 354
e 309 333
e 316 324
e 322 343
e 331 335
e 334 347
e 335 336
